2

2 200
100 200
300 200

3 370
200 100
100 300
300 300

4 733
50 50
350 50
50 300
350 300

5 655
135 80
280 50
310 230
25 235
170 325

6 760
150 40
250 40
20 270
380 270
75 330
325 330

6 460
100 150
200 150
300 150
100 250
200 250
300 250

8 645
50 100
150 100
250 100
350 100
50 200
150 200
250 200
350 200

10 736
50 75
125 75
200 75
275 75
350 75
50 175
125 175
200 175
275 175
350 175
